outputs/case_141.model.txt
broker_application_reinsurance = False
license_issue_date = 20180101
agent_application = True
broker_capital_paid_in_cash = False
agent_capital_adjusted = False
current_date = 20190624
adjustment_deadline = 0
capital_adjustment_due_date = 0
share_or_capital_transfer_ratio = 0
broker_application_insurance = False
agent_capital_paid_in_cash = True
share_or_capital_transfer_due_to_inheritance = False
share_or_capital_transfer_date = 0
broker_capital_adjusted = False
agent_min_capital = 10000000
agent_capital_adjustment_required = False
broker_capital_cash_only = False
penalty = False
compliance_165_1 = True
compliance_163_7 = True
compliance_163_5_applied_165_1 = True
violation_167_2 = False
broker_min_capital = 0
compliance_163_4_financial_or_business = True
broker_capital_adjustment_required = False
agent_capital_cash_only = True